32 134
55 45
19 77
3 75
97 9
33 50
16 154
20 25
24 128
7 116
34 108
1 166
74 13
3 91
23 105
1 45
1 190
41 13
11 89
10 179
38 33
60 19
54 52
6 91
67 10
60 86
12 90
17 60
14 107
19 186
13 111
20 138
36 91
11 200
1 151
30 93
14 123
52 57
61 14
80 22
38 67
85 29
26 171
34 26
42 80
23 185
19 1
32 111
77 6
38 30
15 75
22 16
100 43
62 69
2 30
22 22
4 130
39 70
34 79
39 37
18 64
7 61
43 55
77 72
85 66
37 34
60 65
9 43
13 168
23 69
29 114
19 71
8 139
12 10
62 33
59 10
13 13
45 65
17 79
39 42
67 43
39 12
99 17
61 30
69 25
18 97
6 99
91 34
93 9
12 38
79 33
3 113
94 3
84 63
14 48
39 72
28 168
17 132
50 57
5 157
